50

100 15 300
99 27 299
98 0 296
97 29 297
95 8 287
94 12 292
92 24 278
92 8 281
91 4 291
82 18 294
80 15 297
77 21 247
76 3 238
75 22 248
73 17 288
73 20 230
73 4 281
71 12 233
68 3 294
65 6 271
65 12 298
63 6 239
63 16 263
63 7 238
60 14 263
59 8 258
53 5 232
45 7 292
44 4 259
40 0 192
31 6 210
25 3 209
24 5 116
24 2 77
24 4 100
23 1 80
22 5 291
21 3 208
21 5 299
15 5 175
14 0 270
14 2 140
10 2 274
10 3 213
7 3 118
7 0 113
6 1 55
3 1 89
2 0 127
2 1 296
